
Log started (V12.6.3.0) Wed Jan 31 19:00:55 2018

New value for default parallel thread count: 1

Problem '/tmp/tmpvoMRIH.pyomo.lp' read.
Read time = 1.07 sec. (62.03 ticks)

Problem name         : /tmp/tmpvoMRIH.pyomo.lp
Objective sense      : Minimize
Variables            :  890030  [Nneg: 883468,  Binary: 6561,
                                 General Integer: 1]
Objective nonzeros   :       1
Linear constraints   :   28111  [Less: 6561,  Equal: 21550]
  Nonzeros           : 2649398
  RHS nonzeros       :    5067

Variables            : Min LB: 0.000000         Max UB: 1.000000       
Objective nonzeros   : Min   : 1.000000         Max   : 1.000000       
Linear constraints   :
  Nonzeros           : Min   : 0.1000000        Max   : 3284.090       
  RHS nonzeros       : Min   : 0.08000000       Max   : 6517.490       
Tried aggregator 2 times.
MIP Presolve eliminated 17058 rows and 790057 columns.
Aggregator did 2789 substitutions.
Reduced MIP has 8264 rows, 97184 columns, and 282279 nonzeros.
Reduced MIP has 3261 binaries, 0 generals, 0 SOSs, and 0 indicators.
Presolve time = 0.95 sec. (619.38 ticks)
Tried aggregator 1 time.
MIP Presolve eliminated 57 rows and 0 columns.
MIP Presolve added 114 rows and 0 columns.
Reduced MIP has 8321 rows, 97184 columns, and 282336 nonzeros.
Reduced MIP has 3261 binaries, 0 generals, 0 SOSs, and 0 indicators.
Presolve time = 0.12 sec. (106.57 ticks)
Probing time = 0.01 sec. (10.10 ticks)
Clique table members: 5.
MIP emphasis: balance optimality and feasibility.
MIP search method: dynamic search.
Parallel mode: none, using 1 thread.
Root relaxation solution time = 33.67 sec. (53895.28 ticks)

        Nodes                                         Cuts/
   Node  Left     Objective  IInf  Best Integer    Best Bound    ItCnt     Gap

      0     0      115.1098   217                    115.1098   156154         
*     0+    0                          257.0000      115.1098            55.21%
      0     0      118.0636   249      257.0000    Cuts: 2180   192927   54.06%
      0     0      119.0493   291      257.0000    Cuts: 2180   276784   53.68%
      0     0      119.8086   331      257.0000    Cuts: 2180   317684   53.38%
      0     0      120.1048   338      257.0000    Cuts: 2180   356806   53.27%
      0     0      120.4716   343      257.0000    Cuts: 2180   394330   53.12%
      0     0      120.6126   370      257.0000    Cuts: 2180   433857   53.07%
      0     0      120.8910   364      257.0000    Cuts: 2180   494536   52.96%
      0     0      121.0607   357      257.0000    Cuts: 2180   564865   52.89%
      0     0      121.3872   374      257.0000    Cuts: 2180   625116   52.77%
      0     0      121.4939   380      257.0000    Cuts: 2180   683932   52.73%
      0     0      121.5508   383      257.0000    Cuts: 2180   773335   52.70%
      0     0      121.6426   408      257.0000    Cuts: 2180   852165   52.67%
      0     0      121.7777   396      257.0000    Cuts: 2180   961768   52.62%
      0     0      121.8673   418      257.0000    Cuts: 2180  1045045   52.58%
      0     0      121.9853   435      257.0000    Cuts: 2180  1177274   52.53%
      0     0      122.0613   440      257.0000    Cuts: 2180  1297850   52.51%
      0     0      122.1120   454      257.0000    Cuts: 2180  1399021   52.49%
      0     0      122.1615   462      257.0000    Cuts: 2180  1488455   52.47%
      0     0      122.2061   463      257.0000    Cuts: 2180  1548798   52.45%
      0     0      122.2437   461      257.0000    Cuts: 2180  1666693   52.43%
      0     0      122.2809   495      257.0000    Cuts: 2180  1815005   52.42%
      0     0      122.3731   472      257.0000    Cuts: 2180  1913937   52.38%
      0     0      122.4167   491      257.0000    Cuts: 2180  1978738   52.37%
      0     0      122.4559   460      257.0000    Cuts: 2180  2068242   52.35%
      0     0      122.4873   471      257.0000    Cuts: 2180  2201988   52.34%
      0     0      122.5155   481      257.0000    Cuts: 2180  2271463   52.33%
      0     0      122.5516   474      257.0000    Cuts: 2180  2430640   52.31%
      0     0      122.5783   488      257.0000    Cuts: 2180  2525381   52.30%
Heuristic still looking.
Heuristic still looking.
Heuristic still looking.
*     0+    0                          235.0000      122.5783            47.84%
      0     2      122.5783   488      235.0000      122.5783  2525381   47.84%
Elapsed time = 7449.05 sec. (10677603.70 ticks, tree = 0.01 MB, solutions = 2)
      2     4      122.5783   485      235.0000      122.5783  2525420   47.84%
      3     5      122.5783   485      235.0000      122.5783  2525423   47.84%
      4     6      122.7428   452      235.0000      122.5783  2613493   47.84%
      5     7      122.5918   473      235.0000      122.5787  2687342   47.84%
      6     8      122.5942   475      235.0000      122.5787  2724727   47.84%
      7     9      122.5958   464      235.0000      122.5787  2784860   47.84%
      8    10      122.5975   462      235.0000      122.5787  2790071   47.84%
      9    11      122.5975   457      235.0000      122.5787  2798606   47.84%
     10    12      122.6008   462      235.0000      122.5787  2859946   47.84%
     11    13      122.6374   445      235.0000      122.5787  2907510   47.84%
Elapsed time = 8338.09 sec. (11996359.49 ticks, tree = 2.65 MB, solutions = 2)
     12    14      122.6008   454      235.0000      122.5787  2911007   47.84%
     13    15      122.6069   443      235.0000      122.5787  2964907   47.84%
     14    16      122.6140   441      235.0000      122.5787  3045718   47.84%
     15    17      122.6223   440      235.0000      122.5787  3166116   47.84%
     16    18      122.6140   440      235.0000      122.5787  3166142   47.84%
     17    19      122.6151   441      235.0000      122.5787  3212935   47.84%
     18    20      122.6416   423      235.0000      122.5787  3280729   47.84%
     19    21      122.6531   424      235.0000      122.5787  3331613   47.84%
     20    22      122.7866   415      235.0000      122.5787  3397402   47.84%
     21    23      122.6656   397      235.0000      122.5787  3408829   47.84%
Elapsed time = 9399.61 sec. (13567147.57 ticks, tree = 5.11 MB, solutions = 2)
     22    24      122.6904   405      235.0000      122.5787  3433889   47.84%
     23    25      122.7320   419      235.0000      122.5787  3518921   47.84%
     24    26      122.7049   404      235.0000      122.5787  3561455   47.84%
     25    27      122.7403   406      235.0000      122.5787  3603382   47.84%
     26    28      122.7361   390      235.0000      122.5787  3638147   47.84%
     27    29      122.7460   406      235.0000      122.5787  3665159   47.84%
     28    30      122.7639   387      235.0000      122.5787  3703969   47.84%
     29    31      122.7837   383      235.0000      122.5787  3725147   47.84%
     30    32      122.8180   391      235.0000      122.5787  3758336   47.84%
     31    33      122.7838   384      235.0000      122.5787  3758927   47.84%
Elapsed time = 10064.84 sec. (14542621.49 ticks, tree = 6.71 MB, solutions = 2)
     33    35      122.8058   386      235.0000      122.5787  3785201   47.84%
     34    36      122.8535   388      235.0000      122.5787  3808754   47.84%
     35    37      122.8474   380      235.0000      122.5787  3837464   47.84%
     36    38      122.8820   382      235.0000      122.5787  3881559   47.84%
     37    39      122.8579   375      235.0000      122.5787  3905826   47.84%
     38    40      122.8687   375      235.0000      122.5787  3931456   47.84%
     39    41      122.9185   391      235.0000      122.5787  4011220   47.84%
     40    42      122.8720   382      235.0000      122.5787  4033870   47.84%
     41    43      122.8759   374      235.0000      122.5787  4063487   47.84%
     42    44      122.8905   380      235.0000      122.5787  4111128   47.84%
Elapsed time = 10669.71 sec. (15430915.42 ticks, tree = 8.67 MB, solutions = 2)
     43    45      122.8906   368      235.0000      122.5787  4119712   47.84%
     44    46      122.8906   366      235.0000      122.5787  4119715   47.84%
     45    47      122.9150   376      235.0000      122.5787  4142603   47.84%
     46    48      123.0388   373      235.0000      122.5787  4173447   47.84%
     47    49      122.9150   369      235.0000      122.5787  4186326   47.84%
     48    50      123.0179   387      235.0000      122.5787  4219215   47.84%
     49    51      123.2637   387      235.0000      122.5787  4266522   47.84%
     50    52      123.0382   382      235.0000      122.5787  4283472   47.84%
     51    53      123.0382   378      235.0000      122.5787  4283551   47.84%
     52    54      123.0458   379      235.0000      122.5787  4313870   47.84%
Elapsed time = 11025.77 sec. (15954722.35 ticks, tree = 10.44 MB, solutions = 2)
     53    55      123.0642   367      235.0000      122.5787  4346313   47.84%
     54    56      123.1040   361      235.0000      122.5787  4368940   47.84%
     55    57      123.1740   359      235.0000      122.5787  4388590   47.84%
     56    58      123.2425   374      235.0000      122.5787  4411459   47.84%
     57    59      123.1822   355      235.0000      122.5787  4433424   47.84%
     58    60      123.2057   352      235.0000      122.5787  4460693   47.84%
     59    61      123.2479   353      235.0000      122.5787  4492562   47.84%
     60    62      123.3053   342      235.0000      122.5787  4517044   47.84%
     61    63      123.3655   353      235.0000      122.5787  4529541   47.84%
     62    64      123.4555   353      235.0000      122.5787  4596982   47.84%
Elapsed time = 11539.18 sec. (16714227.60 ticks, tree = 12.40 MB, solutions = 2)
     63    65      123.4001   360      235.0000      122.5787  4607231   47.84%
     64    66      123.4213   332      235.0000      122.5787  4615805   47.84%
     65    67      123.4445   341      235.0000      122.5787  4633114   47.84%
     66    68      123.5364   337      235.0000      122.5787  4671844   47.84%
     67    69      123.4632   349      235.0000      122.5787  4682126   47.84%
     68    70      123.4521   335      235.0000      122.5787  4690952   47.84%
     69    71      123.5748   336      235.0000      122.5787  4713096   47.84%
     70    72      123.5935   319      235.0000      122.5787  4759015   47.84%
     71    73      123.6028   322      235.0000      122.5787  4768220   47.84%
     72    74      123.6154   310      235.0000      122.5787  4781350   47.84%
Elapsed time = 11964.36 sec. (17332023.05 ticks, tree = 18.32 MB, solutions = 2)
     74    76      123.6297   310      235.0000      122.5787  4804524   47.84%
     75    77      123.6543   314      235.0000      122.5787  4828018   47.84%
     76    78      123.6557   319      235.0000      122.5787  4847929   47.84%
     77    79      123.6486   297      235.0000      122.5787  4860566   47.84%
     78    80      123.6633   303      235.0000      122.5787  4875596   47.84%
     79    81      123.8174   315      235.0000      122.5787  4895832   47.84%
     80    82      123.6769   301      235.0000      122.5787  4917346   47.84%
     81    83      123.7016   301      235.0000      122.5787  4929844   47.84%
     82    84      123.7163   303      235.0000      122.5787  4947533   47.84%
     83    85      123.7131   316      235.0000      122.5787  4958503   47.84%
Elapsed time = 12224.34 sec. (17718294.15 ticks, tree = 20.10 MB, solutions = 2)
     84    86      123.7260   301      235.0000      122.5787  4971949   47.84%
     85    87      123.7575   311      235.0000      122.5787  4985453   47.84%
     86    88      123.7936   288      235.0000      122.5787  4997384   47.84%
     87    89      123.8138   289      235.0000      122.5787  5003764   47.84%
     88    90      123.9392   295      235.0000      122.5787  5028866   47.84%
     89    91      123.8886   287      235.0000      122.5787  5051195   47.84%
     90    92      124.0137   313      235.0000      122.5787  5071521   47.84%
     91    93      123.8992   288      235.0000      122.5787  5079768   47.84%
     92    94      123.9593   291      235.0000      122.5787  5097136   47.84%
     93    95      123.9288   291      235.0000      122.5787  5109314   47.84%
Elapsed time = 12439.76 sec. (18042258.50 ticks, tree = 21.87 MB, solutions = 2)
     94    96      123.9617   284      235.0000      122.5787  5125513   47.84%
     95    97      123.9632   281      235.0000      122.5787  5126433   47.84%
     96    98      124.0597   282      235.0000      122.5787  5139417   47.84%
     97    99      124.0083   271      235.0000      122.5787  5151660   47.84%
     98   100      124.0512   278      235.0000      122.5787  5160646   47.84%
     99   101      124.1978   271      235.0000      122.5787  5172129   47.84%
    100   102      124.0512   277      235.0000      122.5787  5180144   47.84%
    101   103      124.0608   276      235.0000      122.5787  5183487   47.84%
    102   104      124.0905   273      235.0000      122.5787  5189859   47.84%
    103   105      124.1108   273      235.0000      122.5787  5195917   47.84%
Elapsed time = 12560.90 sec. (18221602.00 ticks, tree = 23.65 MB, solutions = 2)
    104   106      124.1651   261      235.0000      122.5787  5210798   47.84%
    105   107      124.1804   268      235.0000      122.5787  5226187   47.84%
    106   108      124.4423   274      235.0000      122.5787  5235964   47.84%
    107   109      124.2034   261      235.0000      122.5787  5244100   47.84%
    108   110      124.2380   274      235.0000      122.5787  5250866   47.84%
    109   111      124.3289   269      235.0000      122.5787  5266952   47.84%
    110   112      124.2930   280      235.0000      122.5787  5284319   47.84%
    111   113      124.3186   265      235.0000      122.5787  5293782   47.84%
    112   114      124.3459   257      235.0000      122.5787  5297341   47.84%
    113   115      124.3970   247      235.0000      122.5787  5308534   47.84%
Elapsed time = 12717.72 sec. (18454117.12 ticks, tree = 25.61 MB, solutions = 2)
    114   116      124.4976   279      235.0000      122.5787  5317040   47.84%
    115   117      124.5538   273      235.0000      122.5787  5325925   47.84%
    116   118      124.5538   272      235.0000      122.5787  5325966   47.84%
    117   119      124.5658   278      235.0000      122.5787  5327885   47.84%
    118   120      124.6875   290      235.0000      122.5787  5334588   47.84%
    119   121      124.5658   275      235.0000      122.5787  5334622   47.84%
    120   122      124.5680   278      235.0000      122.5787  5335735   47.84%
    121   123      124.6947   283      235.0000      122.5787  5345636   47.84%
    122   124      124.5684   280      235.0000      122.5787  5346083   47.84%
    123   125      124.5685   275      235.0000      122.5787  5346377   47.84%
Elapsed time = 12766.26 sec. (18527433.15 ticks, tree = 27.38 MB, solutions = 2)
    125   127      124.5959   278      235.0000      122.5787  5348519   47.84%
    126   128      124.6070   278      235.0000      122.5787  5349896   47.84%
    127   129      124.7095   271      235.0000      122.5787  5362199   47.84%
    128   130      124.7376   263      235.0000      122.5787  5365894   47.84%
    129   131      124.7629   260      235.0000      122.5787  5368077   47.84%
    130   132      124.7666   253      235.0000      122.5787  5369812   47.84%
    131   133      124.8207   263      235.0000      122.5787  5374652   47.84%
    132   134      124.8725   258      235.0000      122.5787  5381599   47.84%
    133   135      124.8725   255      235.0000      122.5787  5381700   47.84%
    134   136      124.8821   254      235.0000      122.5787  5383965   47.84%
Elapsed time = 12815.25 sec. (18601780.65 ticks, tree = 29.34 MB, solutions = 2)
    137   139      124.9338   257      235.0000      122.5787  5388648   47.84%
    138   140      124.9680   267      235.0000      122.5787  5397864   47.84%
    139   141      124.9997   255      235.0000      122.5787  5405318   47.84%
    140   142      125.0317   261      235.0000      122.5787  5407154   47.84%
    141   143      125.0359   254      235.0000      122.5787  5411302   47.84%
    142   144      125.1266   255      235.0000      122.5787  5414921   47.84%
    143   145      125.1650   260      235.0000      122.5787  5423043   47.84%
    144   146      125.1594   262      235.0000      122.5787  5424871   47.84%
    145   147      125.4982   253      235.0000      122.5787  5426804   47.84%
    146   148      125.1700   254      235.0000      122.5787  5428767   47.84%
Elapsed time = 12872.16 sec. (18689287.39 ticks, tree = 31.48 MB, solutions = 2)
    147   149      125.2262   262      235.0000      122.5787  5431594   47.84%
    148   150      125.1783   261      235.0000      122.5787  5432344   47.84%
    149   151      125.1869   254      235.0000      122.5787  5434072   47.84%
    150   152      125.2259   253      235.0000      122.5787  5437264   47.84%
    151   153      125.3616   262      235.0000      122.5787  5440193   47.84%
    152   154      125.2338   250      235.0000      122.5787  5440575   47.84%
    153   155      125.2568   248      235.0000      122.5787  5442471   47.84%
    154   156      125.2701   250      235.0000      122.5787  5443977   47.84%
    155   157      125.6318   254      235.0000      122.5787  5449033   47.84%
    156   158      125.4521   256      235.0000      122.5787  5454325   47.84%
Elapsed time = 12905.25 sec. (18739024.78 ticks, tree = 33.08 MB, solutions = 2)
    157   159      125.3725   274      235.0000      122.5787  5459329   47.84%
    158   160      125.4781   255      235.0000      122.5787  5461717   47.84%
    159   161      125.4579   248      235.0000      122.5787  5462215   47.84%
    160   162      125.4601   248      235.0000      122.5787  5462288   47.84%
    161   163      125.4671   250      235.0000      122.5787  5463516   47.84%
    162   164      125.4614   250      235.0000      122.5787  5464009   47.84%
    163   165      125.4699   253      235.0000      122.5787  5465499   47.84%
    164   166      125.4986   248      235.0000      122.5787  5468170   47.84%
    165   167      125.6624   249      235.0000      122.5787  5475166   47.84%
    166   168      125.5003   247      235.0000      122.5787  5475844   47.84%
Elapsed time = 12931.58 sec. (18778795.77 ticks, tree = 35.04 MB, solutions = 2)
    169   171      125.5591   240      235.0000      122.5787  5486658   47.84%
    170   172      125.5657   238      235.0000      122.5787  5490713   47.84%
    171   173      125.5915   239      235.0000      122.5787  5494820   47.84%
    172   174      125.5664   238      235.0000      122.5787  5495118   47.84%
    173   175      125.5882   246      235.0000      122.5787  5500045   47.84%
    174   176      125.5733   232      235.0000      122.5787  5501932   47.84%
    175   177      125.5813   235      235.0000      122.5787  5505660   47.84%
    176   178      125.8049   245      235.0000      122.5787  5510115   47.84%
    177   179      125.5943   240      235.0000      122.5787  5512281   47.84%
    178   180      125.6307   230      235.0000      122.5787  5515966   47.84%
Elapsed time = 12983.46 sec. (18857072.62 ticks, tree = 37.17 MB, solutions = 2)
    179   181      125.6772   241      235.0000      122.5787  5518276   47.84%
    180   182      125.6514   229      235.0000      122.5787  5520053   47.84%
    181   183      125.6824   224      235.0000      122.5787  5522662   47.84%
    182   184      125.7130   224      235.0000      122.5787  5527445   47.84%
    183   185      125.8728   214      235.0000      122.5787  5531043   47.84%
    184   186      125.8925   224      235.0000      122.5787  5533609   47.84%
    185   187      125.9726   210      235.0000      122.5787  5540055   47.84%
    186   188      125.9992   212      235.0000      122.5787  5540569   47.84%
    187   189      126.0712   210      235.0000      122.5787  5542764   47.84%
    188   190      126.1210   222      235.0000      122.5787  5551456   47.84%
Elapsed time = 13026.93 sec. (18920976.06 ticks, tree = 38.77 MB, solutions = 2)
    189   191      126.1358   224      235.0000      122.5787  5556912   47.84%
    190   192      126.2814   216      235.0000      122.5787  5560717   47.84%
    191   193      126.1293   221      235.0000      122.5787  5561030   47.84%
    192   194      126.1677   229      235.0000      122.5787  5562836   47.84%
    193   195      126.2627   225      235.0000      122.5787  5565827   47.84%
    194   196      126.1721   228      235.0000      122.5787  5566236   47.84%
    195   197      126.1908   223      235.0000      122.5787  5567068   47.84%
    196   198      126.2459   229      235.0000      122.5787  5569703   47.84%
    197   199      126.2517   238      235.0000      122.5787  5573783   47.84%
    198   200      126.4104   230      235.0000      122.5787  5578129   47.84%
Elapsed time = 13059.32 sec. (18968639.46 ticks, tree = 40.55 MB, solutions = 2)
*   200+  200                          219.0000      122.5787            44.03%

Cover cuts applied:  45
Implied bound cuts applied:  3674
Flow cuts applied:  745
Mixed integer rounding cuts applied:  489
Flow path cuts applied:  49
Gomory fractional cuts applied:  5

Root node processing (before b&c):
  Real time             = 7449.04 sec. (10677618.75 ticks)
Sequential b&c:
  Real time             = 6951.01 sec. (10629824.18 ticks)
                          ------------
Total (root+branch&cut) = 14400.05 sec. (21307442.93 ticks)

Solution pool: 3 solutions saved.

MIP - Time limit exceeded, integer feasible:  Objective =  2.1900000000e+02
Current MIP best bound =  1.2257867381e+02 (gap = 96.4213, 44.03%)
Solution time = 14400.05 sec.  Iterations = 5580630  Nodes = 200 (201)
Deterministic time = 21307445.47 ticks  (1479.68 ticks/sec)


Incumbent solution written to file '/tmp/tmp6ljFJa.cplex.sol'.
